NAME asexual reproduction_srl_ilp
* Max problem is converted into Min one
ROWS
 N  OBJ
 L  constraint1_120
 L  constraint1_4820
 L  constraint1_2090
 L  constraint1_4930
 L  constraint2_120
 L  constraint2_121
 L  constraint2_122
 L  constraint2_123
 L  constraint2_4820
 L  constraint2_4821
 L  constraint2_4822
 L  constraint2_4823
 L  constraint2_2090
 L  constraint2_2091
 L  constraint2_2092
 L  constraint2_2093
 L  constraint2_4930
 L  constraint2_4931
 L  constraint2_4932
 L  constraint2_4933
COLUMNS
    MARKER    'MARKER'                 'INTORG'
    Z_12_0_0  OBJ       -4.6991758415013688e-04
    Z_12_0_0  constraint1_120  1
    Z_12_0_0  constraint2_120  1
    Z_12_0_1  OBJ       -2.9575219564636681e-02
    Z_12_0_1  constraint1_120  1
    Z_12_0_1  constraint2_121  1
    Z_12_0_2  OBJ       -5.4270650468448167e-01
    Z_12_0_2  constraint1_120  1
    Z_12_0_2  constraint2_122  1
    Z_12_0_3  OBJ       -1.4399903509626747e-02
    Z_12_0_3  constraint1_120  1
    Z_12_0_3  constraint2_123  1
    Z_482_0_0  OBJ       -4.5855248009857297e-04
    Z_482_0_0  constraint1_4820  1
    Z_482_0_0  constraint2_4820  1
    Z_482_0_1  OBJ       -4.8247105241544810e-02
    Z_482_0_1  constraint1_4820  1
    Z_482_0_1  constraint2_4821  1
    Z_482_0_2  OBJ       -6.4952743657163481e-01
    Z_482_0_2  constraint1_4820  1
    Z_482_0_2  constraint2_4822  1
    Z_482_0_3  OBJ       -4.0678067797241466e-03
    Z_482_0_3  constraint1_4820  1
    Z_482_0_3  constraint2_4823  1
    Z_209_0_0  OBJ       -1.5026804567548202e-02
    Z_209_0_0  constraint1_2090  1
    Z_209_0_0  constraint2_2090  1
    Z_209_0_1  OBJ       -4.4322249335942587e-02
    Z_209_0_1  constraint1_2090  1
    Z_209_0_1  constraint2_2091  1
    Z_209_0_2  OBJ       -2.0859177365692963e-01
    Z_209_0_2  constraint1_2090  1
    Z_209_0_2  constraint2_2092  1
    Z_209_0_3  OBJ       -4.3924816860333477e-02
    Z_209_0_3  constraint1_2090  1
    Z_209_0_3  constraint2_2093  1
    Z_493_0_0  OBJ       -4.8518190076642933e-04
    Z_493_0_0  constraint1_4930  1
    Z_493_0_0  constraint2_4930  1
    Z_493_0_1  OBJ       -3.2282384752916685e-02
    Z_493_0_1  constraint1_4930  1
    Z_493_0_1  constraint2_4931  1
    Z_493_0_2  OBJ       -8.1220991626062611e-01
    Z_493_0_2  constraint1_4930  1
    Z_493_0_2  constraint2_4932  1
    Z_493_0_3  OBJ       -1.1283795072766839e-02
    Z_493_0_3  constraint1_4930  1
    Z_493_0_3  constraint2_4933  1
    MARKER    'MARKER'                 'INTEND'
RHS
    RHS1      constraint1_120  1
    RHS1      constraint1_4820  1
    RHS1      constraint1_2090  1
    RHS1      constraint1_4930  1
    RHS1      constraint2_120  1
    RHS1      constraint2_121  1
    RHS1      constraint2_122  1
    RHS1      constraint2_123  1
    RHS1      constraint2_4820  1
    RHS1      constraint2_4821  1
    RHS1      constraint2_4822  1
    RHS1      constraint2_4823  1
    RHS1      constraint2_2090  1
    RHS1      constraint2_2091  1
    RHS1      constraint2_2092  1
    RHS1      constraint2_2093  1
    RHS1      constraint2_4930  1
    RHS1      constraint2_4931  1
    RHS1      constraint2_4932  1
    RHS1      constraint2_4933  1
BOUNDS
 UP BND1      Z_12_0_0  1
 UP BND1      Z_12_0_1  1
 UP BND1      Z_12_0_2  1
 UP BND1      Z_12_0_3  1
 UP BND1      Z_482_0_0  1
 UP BND1      Z_482_0_1  1
 UP BND1      Z_482_0_2  1
 UP BND1      Z_482_0_3  1
 UP BND1      Z_209_0_0  1
 UP BND1      Z_209_0_1  1
 UP BND1      Z_209_0_2  1
 UP BND1      Z_209_0_3  1
 UP BND1      Z_493_0_0  1
 UP BND1      Z_493_0_1  1
 UP BND1      Z_493_0_2  1
 UP BND1      Z_493_0_3  1
QUADOBJ
    Z_12_0_0  Z_482_0_0  -2.7343749999999994e-03
    Z_12_0_0  Z_493_0_0  -9.1836734693877542e-03
    Z_12_0_1  Z_482_0_1  -2.7343749999999994e-03
    Z_12_0_1  Z_493_0_1  -9.1836734693877542e-03
    Z_12_0_2  Z_482_0_2  -2.7343749999999994e-03
    Z_12_0_2  Z_493_0_2  -9.1836734693877542e-03
    Z_12_0_3  Z_482_0_3  -2.7343749999999994e-03
    Z_12_0_3  Z_493_0_3  -9.1836734693877542e-03
ENDATA
